NAME: random-23-15929
TYPE: TSP
COMMENT: size=23 seed=15929
DIMENSION: 48
EDGE_WEIGHT_TYPE: EUC_2D
NODE_COORD_SECTION
+0 703 856
-0 703 856
+1 528 599
-1 773 651
+2 927 125
-2 884 654
+3 376 168
-3 326 548
+4 353 307
-4 131 140
+5 937 468
-5 154 313
+6 974 486
-6 763 110
+7 42 872
-7 613 127
+8 188 911
-8 415 541
+9 672 365
-9 349 816
+10 398 91
-10 480 144
+11 999 526
-11 345 15
+12 305 356
-12 706 114
+13 543 410
-13 438 366
+14 593 278
-14 516 179
+15 468 422
-15 93 889
+16 877 841
-16 0 117
+17 700 179
-17 17 356
+18 704 345
-18 199 700
+19 291 285
-19 715 105
+20 493 914
-20 297 427
+21 283 686
-21 176 231
+22 739 204
-22 694 554
+23 768 153
-23 103 489
PRECEDENCE_SECTION
+0 -0
+1 -1
+2 -2
+3 -3
+4 -4
+5 -5
+6 -6
+7 -7
+8 -8
+9 -9
+10 -10
+11 -11
+12 -12
+13 -13
+14 -14
+15 -15
+16 -16
+17 -17
+18 -18
+19 -19
+20 -20
+21 -21
+22 -22
+23 -23
EOF
